
Gurobi 10.0.2 (win64) logging started Fri Jun 21 03:40:15 2024

Set parameter LogFile to value "log/log_difficulty1_MNL_DESKTOP-S7OVCUR_9_7.txt"
Gurobi Optimizer version 10.0.2 build v10.0.2rc0 (win64)

CPU model: Intel(R) Core(TM) i7-10510U CPU @ 1.80GHz, instruction set [SSE2|AVX|AVX2]
Thread count: 4 physical cores, 8 logical processors, using up to 8 threads

Optimize a model with 2020 rows, 676 columns and 4612 nonzeros
Model fingerprint: 0x8cd2367a
Variable types: 364 continuous, 312 integer (312 binary)
Coefficient statistics:
  Matrix range     [1e-03, 7e+02]
  Objective range  [1e+02, 6e+02]
  Bounds range     [1e+00, 1e+00]
  RHS range        [1e+00, 1e+00]
Found heuristic solution: objective -0.0000000
Presolve removed 224 rows and 104 columns
Presolve time: 0.03s
Presolved: 1796 rows, 572 columns, 4234 nonzeros
Found heuristic solution: objective 2310.9768565
Variable types: 308 continuous, 264 integer (264 binary)

Root relaxation: objective 1.577080e+04, 428 iterations, 0.02 seconds (0.00 work units)

    Nodes    |    Current Node    |     Objective Bounds      |     Work
 Expl Unexpl |  Obj  Depth IntInf | Incumbent    BestBd   Gap | It/Node Time

     0     0 15770.8020    0  154 2310.97686 15770.8020   582%     -    0s
H    0     0                    9222.9609505 15770.8020  71.0%     -    0s
H    0     0                    9776.9602992 15770.8020  61.3%     -    0s
H    0     0                    13647.583681 15770.8020  15.6%     -    0s
     0     0 14968.9712    0  182 13647.5837 14968.9712  9.68%     -    0s
H    0     0                    13761.754287 14968.9712  8.77%     -    0s
     0     0 14954.4062    0  191 13761.7543 14954.4062  8.67%     -    0s
     0     0 14954.4062    0  192 13761.7543 14954.4062  8.67%     -    0s
     0     0 14632.2536    0  196 13761.7543 14632.2536  6.33%     -    0s
H    0     0                    14119.378884 14632.2536  3.63%     -    0s
     0     0 14605.9250    0  189 14119.3789 14605.9250  3.45%     -    0s
     0     0 14603.0431    0  191 14119.3789 14603.0431  3.43%     -    0s
H    0     0                    14429.586279 14602.9531  1.20%     -    0s
     0     0 14602.9531    0  192 14429.5863 14602.9531  1.20%     -    0s
     0     0 14527.7304    0  183 14429.5863 14527.7304  0.68%     -    0s
     0     0 14524.2895    0  187 14429.5863 14524.2895  0.66%     -    0s
     0     0 14522.5869    0  187 14429.5863 14522.5869  0.64%     -    0s
     0     0 14522.0644    0  189 14429.5863 14522.0644  0.64%     -    0s
H    0     0                    14450.692161 14515.0954  0.45%     -    0s
     0     0 14515.0954    0  185 14450.6922 14515.0954  0.45%     -    0s
H    0     0                    14453.441432 14515.0954  0.43%     -    0s
H    0     0                    14458.738428 14515.0954  0.39%     -    0s
     0     0 14513.6724    0  184 14458.7384 14513.6724  0.38%     -    0s
H    0     0                    14494.846830 14513.5881  0.13%     -    0s
     0     0 14513.5881    0  185 14494.8468 14513.5881  0.13%     -    0s
H    0     0                    14512.481011 14513.5881  0.01%     -    0s

Cutting planes:
  Gomory: 20
  Implied bound: 23
  MIR: 42
  Flow cover: 103
  RLT: 64
  Relax-and-lift: 7
  BQP: 10

Explored 1 nodes (2004 simplex iterations) in 0.63 seconds (0.20 work units)
Thread count was 8 (of 8 available processors)

Solution count 10: 14512.5 14494.8 14458.7 ... 9776.96

Optimal solution found (tolerance 1.00e-04)
Best objective 1.451248101096e+04, best bound 1.451358813541e+04, gap 0.0076%
